La16 Mo16 O112
1.0
   7.1480998993000000    7.1480998993000000    7.1480998993000000
  -7.1480998993000000    7.1480998993000000   -7.1480998993000000
  -7.1480998993000000   -7.1480998993000000    7.1480998993000000
Mo O La
16 112 16
direct
   0.1423300057823242    0.5000000000000000    0.5000000000000000 Mo
   0.1423300057823242    0.0000000000000000    0.0000000000000000 Mo
   0.6423300057823241    0.0000000000000000    0.4999999999999999 Mo
   0.6423300057823241    0.4999999999999999    0.0000000000000000 Mo
   0.7500000000034974    0.7500000000244820    0.6423299908832599 Mo
   0.7500000000034974    0.2500000000244820    0.1423299908832599 Mo
   0.2500000000034974    0.2500000000244820    0.6423299908832599 Mo
   0.2500000000034976    0.7500000000244821    0.1423299908832599 Mo
   0.4999999999790154    0.3923299908587779    0.2499999999755180 Mo
   0.4999999999790154    0.8923299908587778    0.7499999999755180 Mo
   0.9999999999790153    0.8923299908587778    0.2499999999755180 Mo
   0.9999999999790153    0.3923299908587778    0.7499999999755180 Mo
   0.6076700091202375    0.3576700091167401    0.6076700091412222 Mo
   0.6076700091202375    0.8576700091167402    0.1076700091412222 Mo
   0.1076700091202376    0.8576700091167402    0.6076700091412223 Mo
   0.1076700091202374    0.3576700091167401    0.1076700091412222 Mo
   0.6526899933864778    0.4261550009182592    0.3643949926336476 O
   0.6526899933864778    0.9261550009182592    0.8643949926336475 O
   0.1526899933864778    0.9261550009182592    0.3643949926336475 O
   0.1526899933864778    0.4261550009182592    0.8643949926336475 O
   0.1882399916699217    0.3238449990572588    0.2265349924402392 O
   0.1882399916699217    0.8238449990572587    0.7265349924402391 O
   0.6882399916699217    0.8238449990572587    0.2265349924402392 O
   0.6882399916699218    0.3238449990572588    0.7265349924402391 O
   0.5617600083335758    0.5382950008192816    0.8856050073908345 O
   0.5617600083335758    0.0382950008192816    0.3856050073908345 O
   0.0617600083335759    0.0382950008192816    0.8856050073908345 O
   0.0617600083335756    0.5382950008192816    0.3856050073908345 O
   0.5973100066659837    0.7117049992052005    0.5234650075352788 O
   0.5973100066659837    0.2117049992052005    0.0234650075352788 O
   0.0973100066659836    0.2117049992052005    0.5234650075352787 O
   0.0973100066659838    0.7117049992052006    0.0234650075352788 O
   0.7882950007528303    0.6356050073663525    0.5617600082846117 O
   0.7882950007528303    0.1356050073663524    0.0617600082846116 O
   0.2882950007528302    0.1356050073663524    0.5617600082846116 O
   0.2882950007528302    0.6356050073663525    0.0617600082846116 O
   0.4617049992296825    0.7734650075597609    0.5973100066170196 O
   0.4617049992296825    0.2734650075597608    0.0973100066170196 O
   0.9617049992296826    0.2734650075597608    0.5973100066170196 O
   0.9617049992296826    0.7734650075597609    0.0973100066170196 O
   0.1761550009427413    0.1143949926091655    0.1526899934284471 O
   0.1761550009427413    0.6143949926091654    0.6526899934284470 O
   0.6761550009427413    0.6143949926091654    0.1526899934284471 O
   0.6761550009427413    0.1143949926091655    0.6526899934284470 O
   0.5738449991307049    0.4765349924647212    0.6882399916699217 O
   0.5738449991307049    0.9765349924647212    0.1882399916699217 O
   0.0738449991307049    0.9765349924647212    0.6882399916699218 O
   0.0738449991307051    0.4765349924647213    0.1882399916699217 O
   0.7265349924682187    0.4382399917153884    0.5738449990817408 O
   0.7265349924682187    0.9382399917153883    0.0738449990817408 O
   0.2265349924682187    0.9382399917153883    0.5738449990817408 O
   0.2265349924682187    0.4382399917153883    0.0738449990817408 O
   0.3643949926126629    0.4026899933829804    0.6761550009427413 O
   0.3643949926126629    0.9026899933829804    0.1761550009427412 O
   0.8643949926126629    0.9026899933829804    0.6761550009427413 O
   0.8643949926126629    0.4026899933829804    0.1761550009427412 O
   0.5234650075142943    0.8473100065715529    0.4617049991807184 O
   0.5234650075142943    0.3473100065715529    0.9617049991807184 O
   0.0234650075142941    0.3473100065715529    0.4617049991807184 O
   0.0234650075142941    0.8473100065715530    0.9617049991807184 O
   0.3856050074607832    0.3117600083300783    0.2882950007947995 O
   0.3856050074607832    0.8117600083300782    0.7882950007947995 O
   0.8856050074607832    0.8117600083300782    0.2882950007947995 O
   0.8856050074607831    0.3117600083300782    0.7882950007947995 O
   0.3080799878322428    0.4999999999999999    0.4999999999999999 O
   0.3080799878322428    1.0000000000000000    1.0000000000000000 O
   0.8080799878322429    1.0000000000000000    0.5000000000000000 O
   0.8080799878322429    0.5000000000000000    1.0000000000000000 O
   0.7500000000034974    0.7500000149235463    0.8080799728632299 O
   0.7500000000034974    0.2500000149235463    0.3080799728632299 O
   0.2500000000034974    0.2500000149235463    0.8080799728632299 O
   0.2500000000034974    0.7500000149235463    0.3080799728632299 O
   0.4999999850799511    0.5580799579396835    0.2499999850764537 O
   0.4999999850799511    0.0580799579396835    0.7499999850764536 O
   0.9999999850799511    0.0580799579396835    0.2499999850764537 O
   0.9999999850799511    0.5580799579396835    0.7499999850764536 O
   0.4419200271402676    0.1919200271367702    0.4419200420603165 O
   0.4419200271402676    0.6919200271367703    0.9419200420603165 O
   0.9419200271402676    0.6919200271367703    0.4419200420603165 O
   0.9419200271402676    0.1919200271367702    0.9419200420603165 O
   0.3069399967696112    0.1106150075948757    0.2536550014959302 O
   0.3069399967696111    0.6106150075948757    0.7536550014959302 O
   0.8069399967696111    0.6106150075948757    0.2536550014959302 O
   0.8069399967696111    0.1106150075948757    0.7536550014959302 O
   0.8930400013890585    0.6393849849660844    0.6963250040947844 O
   0.8930400013890585    0.1393849849660844    0.1963250040947843 O
   0.3930400013890585    0.1393849849660844    0.6963250040947844 O
   0.3930400013890585    0.6393849849660844    0.1963250040947843 O
   0.3569600134925188    0.8032850027337054    0.4963449984795878 O
   0.3569600134925188    0.3032850027337054    0.9963449984795878 O
   0.8569600134925187    0.3032850027337054    0.4963449984795877 O
   0.8569600134925187    0.8032850027337054    0.9963449984795878 O
   0.4430599808503154    0.4467149972907766    0.5536749959296977 O
   0.4430599808503154    0.9467149972907766    0.0536749959296977 O
   0.9430599808503154    0.9467149972907766    0.5536749959296976 O
   0.9430599808503155    0.4467149972907766    0.0536749959296977 O
   0.5532849952736810    0.7463449985040699    0.3569600060989456 O
   0.5532849952736810    0.2463449985040698    0.8569600060989455 O
   0.0532849952736809    0.2463449985040698    0.3569600060989455 O
   0.0532849952736811    0.7463449985040699    0.8569600060989455 O
   0.6967149972942741    0.3036749959052157    0.4430599808713001 O
   0.6967149972942741    0.8036749959052157    0.9430599808713001 O
   0.1967149972942741    0.8036749959052157    0.4430599808713001 O
   0.1967149972942741    0.3036749959052157    0.9430599808713001 O
   0.3606150150129310    0.5036550015204123    0.8069400042541177 O
   0.3606150150129310    0.0036550015204122    0.3069400042541177 O
   0.8606150150129309    0.0036550015204122    0.8069400042541176 O
   0.8606150150129309    0.5036550015204122    0.3069400042541177 O
   0.3893849849206178    0.4463250040703023    0.3930400013610789 O
   0.3893849849206178    0.9463250040703024    0.8930400013610789 O
   0.8893849849206178    0.9463250040703024    0.3930400013610789 O
   0.8893849849206179    0.4463250040703024    0.8930400013610789 O
   0.6963249891747355    0.6430399939010545    0.8893849924051244 O
   0.6963249891747355    0.1430399939010545    0.3893849924051243 O
   0.1963249891747354    0.1430399939010545    0.8893849924051243 O
   0.1963249891747354    0.6430399939010545    0.3893849924051243 O
   0.7536550164229741    0.5569400191286999    0.3606150150339156 O
   0.7536550164229741    0.0569400191286999    0.8606150150339156 O
   0.2536550164229741    0.0569400191286999    0.3606150150339156 O
   0.2536550164229741    0.5569400191286999    0.8606150150339156 O
   0.0536750107588133    0.1930599957458824    0.1967149972662946 O
   0.0536750107588133    0.6930599957458823    0.6967149972662945 O
   0.5536750107588133    0.6930599957458823    0.1967149972662945 O
   0.5536750107588133    0.1930599957458823    0.6967149972662945 O
   0.4963449835595389    0.6069599986389211    0.5532850027092234 O
   0.4963449835595389    0.1069599986389211    0.0532850027092234 O
   0.9963449835595389    0.1069599986389211    0.5532850027092235 O
   0.9963449835595388    0.6069599986389210    0.0532850027092234 O
   0.8529800176123848    0.5000000000000000    0.5000000000000000 La
   0.8529800176123848    1.0000000000000000    1.0000000000000000 La
   0.3529800176123847    1.0000000000000000    0.5000000000000000 La
   0.3529800176123847    0.5000000000000000    1.0000000000000000 La
   0.2500000000244820    0.2499999999755180    0.3529800176543540 La
   0.2500000000244820    0.7499999999755180    0.8529800176543539 La
   0.7500000000244821    0.7499999999755180    0.3529800176543541 La
   0.7500000000244820    0.2499999999755179    0.8529800176543539 La
   0.5000000000489641    0.6029800176788360    0.7500000000244821 La
   0.5000000000489641    0.1029800176788360    0.2500000000244820 La
   0.0000000000489642    0.1029800176788360    0.7500000000244821 La
   0.0000000000489642    0.6029800176788361    0.2500000000244820 La
   0.3970199823701281    0.6470199823456461    0.3970199823211640 La
   0.3970199823701281    0.1470199823456460    0.8970199823211640 La
   0.8970199823701280    0.1470199823456460    0.3970199823211640 La
   0.8970199823701280    0.6470199823456461    0.8970199823211640 La
