La16 Gd16 Mo16 W16 O112
1.0
   7.1294999123000000    7.1294999123000000    7.1294999123000000
  -7.1294999123000000    7.1294999123000000   -7.1294999123000000
  -7.1294999123000000   -7.1294999123000000    7.1294999123000000
La Gd Mo W O
16 16 16 16 112
direct
   0.8452000021213326    0.5000000000000000    0.5000000000000000 La
   0.8452000021213326    1.0000000000000000    1.0000000000000000 La
   0.3452000021213326    1.0000000000000000    0.4999999999999999 La
   0.3452000021213324    0.4999999999999999    1.0000000000000000 La
   0.2499999999894803    0.2500000000105197    0.3452000021634112 La
   0.2499999999894803    0.7500000000105197    0.8452000021634112 La
   0.7499999999894803    0.7500000000105197    0.3452000021634112 La
   0.7499999999894803    0.2500000000105197    0.8452000021634112 La
   0.4999999999789606    0.5952000021528915    0.7499999999894803 La
   0.4999999999789606    0.0952000021528915    0.2499999999894803 La
   0.9999999999789607    0.0952000021528915    0.7499999999894804 La
   0.9999999999789606    0.5952000021528915    0.2499999999894803 La
   0.4047999978260691    0.6547999978365888    0.4047999978471085 La
   0.4047999978260691    0.1547999978365888    0.9047999978471085 La
   0.9047999978260691    0.1547999978365888    0.4047999978471085 La
   0.9047999978260691    0.6547999978365888    0.9047999978471085 La
   0.8452000021213326    0.5000000000000000    0.5000000000000000 Gd
   0.8452000021213326    1.0000000000000000    1.0000000000000000 Gd
   0.3452000021213326    1.0000000000000000    0.4999999999999999 Gd
   0.3452000021213324    0.4999999999999999    1.0000000000000000 Gd
   0.2499999999894803    0.2500000000105197    0.3452000021634112 Gd
   0.2499999999894803    0.7500000000105197    0.8452000021634112 Gd
   0.7499999999894803    0.7500000000105197    0.3452000021634112 Gd
   0.7499999999894803    0.2500000000105197    0.8452000021634112 Gd
   0.4999999999789606    0.5952000021528915    0.7499999999894803 Gd
   0.4999999999789606    0.0952000021528915    0.2499999999894803 Gd
   0.9999999999789607    0.0952000021528915    0.7499999999894804 Gd
   0.9999999999789606    0.5952000021528915    0.2499999999894803 Gd
   0.4047999978260691    0.6547999978365888    0.4047999978471085 Gd
   0.4047999978260691    0.1547999978365888    0.9047999978471085 Gd
   0.9047999978260691    0.1547999978365888    0.4047999978471085 Gd
   0.9047999978260691    0.6547999978365888    0.9047999978471085 Gd
   0.1404000073375525    0.5000000000000000    0.5000000000000000 Mo
   0.1404000073375525    1.0000000000000000    1.0000000000000000 Mo
   0.6404000073375525    1.0000000000000000    0.5000000000000000 Mo
   0.6404000073375524    0.5000000000000000    1.0000000000000000 Mo
   0.7499999999684410    0.7499999999894803    0.6403999924697495 Mo
   0.7499999999684410    0.2499999999894803    0.1403999924697495 Mo
   0.2499999999684410    0.2499999999894803    0.6403999924697495 Mo
   0.2499999999684410    0.7499999999894803    0.1403999924697495 Mo
   0.4999999999789607    0.3903999924802692    0.2500000000105196 Mo
   0.4999999999789607    0.8903999924802692    0.7500000000105197 Mo
   0.9999999999789606    0.8903999924802692    0.2500000000105197 Mo
   0.9999999999789607    0.3903999924802692    0.7500000000105197 Mo
   0.6096000074986915    0.3596000075302505    0.6096000075197309 Mo
   0.6096000074986915    0.8596000075302505    0.1096000075197308 Mo
   0.1096000074986916    0.8596000075302505    0.6096000075197309 Mo
   0.1096000074986916    0.3596000075302505    0.1096000075197308 Mo
   0.1404000073375525    0.5000000000000000    0.5000000000000000 W
   0.1404000073375525    1.0000000000000000    1.0000000000000000 W
   0.6404000073375525    1.0000000000000000    0.5000000000000000 W
   0.6404000073375524    0.5000000000000000    1.0000000000000000 W
   0.7499999999684410    0.7499999999894803    0.6403999924697495 W
   0.7499999999684410    0.2499999999894803    0.1403999924697495 W
   0.2499999999684410    0.2499999999894803    0.6403999924697495 W
   0.2499999999684410    0.7499999999894803    0.1403999924697495 W
   0.4999999999789607    0.3903999924802692    0.2500000000105196 W
   0.4999999999789607    0.8903999924802692    0.7500000000105197 W
   0.9999999999789606    0.8903999924802692    0.2500000000105197 W
   0.9999999999789607    0.3903999924802692    0.7500000000105197 W
   0.6096000074986915    0.3596000075302505    0.6096000075197309 W
   0.6096000074986915    0.8596000075302505    0.1096000075197308 W
   0.1096000074986916    0.8596000075302505    0.6096000075197309 W
   0.1096000074986916    0.3596000075302505    0.1096000075197308 W
   0.2784999906619607    0.5000000000000000    0.5000000000000000 O
   0.2784999906619607    0.0000000000000000    0.0000000000000000 O
   0.7784999906619607    0.0000000000000000    0.5000000000000000 O
   0.7784999906619607    0.5000000000000000    0.0000000000000000 O
   0.7499999999684409    0.7500000148572833    0.7784999757941578 O
   0.7499999999684410    0.2500000148572833    0.2784999757941578 O
   0.2499999999684410    0.2500000148572833    0.7784999757941579 O
   0.2499999999684410    0.7500000148572832    0.2784999757941578 O
   0.4999999851111577    0.5284999609368745    0.2499999851427167 O
   0.4999999851111577    0.0284999609368744    0.7499999851427166 O
   0.9999999851111576    0.0284999609368744    0.2499999851427166 O
   0.9999999851111577    0.5284999609368745    0.7499999851427166 O
   0.4715000241742832    0.2215000242058422    0.4715000390631255 O
   0.4715000241742832    0.7215000242058422    0.9715000390631255 O
   0.9715000241742832    0.7215000242058422    0.4715000390631254 O
   0.9715000241742832    0.2215000242058422    0.9715000390631255 O
   0.3349999933907706    0.5315000265463991    0.6975000202427591 O
   0.3349999933907706    0.0315000265463991    0.1975000202427592 O
   0.8349999933907706    0.0315000265463991    0.6975000202427591 O
   0.8349999933907706    0.5315000265463991    0.1975000202427592 O
   0.4159999787479063    0.7184999585051471    0.3034999668654109 O
   0.4159999787479063    0.2184999585051471    0.8034999668654109 O
   0.9159999787479063    0.2184999585051471    0.3034999668654109 O
   0.9159999787479063    0.7184999585051471    0.8034999668654109 O
   0.8340000211994953    0.3874999880964652    0.5524999797467212 O
   0.8340000211994953    0.8874999880964652    0.0524999797467211 O
   0.3340000211994953    0.8874999880964652    0.5524999797467212 O
   0.3340000211994953    0.3874999880964652    0.0524999797467211 O
   0.4150000065776703    0.3625000268519886    0.4465000331451088 O
   0.4150000065776703    0.8625000268519886    0.9465000331451088 O
   0.9150000065776704    0.8625000268519886    0.4465000331451088 O
   0.9150000065776703    0.3625000268519886    0.9465000331451088 O
   0.1374999731480114    0.3024999797572408    0.3340000063036399 O
   0.1374999731480114    0.8024999797572407    0.8340000063036399 O
   0.6374999731480114    0.8024999797572407    0.3340000063036399 O
   0.6374999731480114    0.3024999797572408    0.8340000063036399 O
   0.6125000118824954    0.6965000331345891    0.9149999916397362 O
   0.6125000118824954    0.1965000331345891    0.4149999916397362 O
   0.1125000118824955    0.1965000331345891    0.9149999916397362 O
   0.1125000118824955    0.6965000331345891    0.4149999916397362 O
   0.7815000414527742    0.4475000202532789    0.3350000083497441 O
   0.7815000414527742    0.9475000202532788    0.8350000083497442 O
   0.2815000414527742    0.9475000202532788    0.3350000083497441 O
   0.2815000414527742    0.4475000202532789    0.8350000083497442 O
   0.4684999734325616    0.5534999668548912    0.4159999937068798 O
   0.4684999734325616    0.0534999668548912    0.9159999937068798 O
   0.9684999734325616    0.0534999668548912    0.4159999937068798 O
   0.9684999734325616    0.5534999668548912    0.9159999937068798 O
   0.3034999668443716    0.6659999936963601    0.4684999734536009 O
   0.3034999668443716    0.1659999936963601    0.9684999734536009 O
   0.8034999668443715    0.1659999936963601    0.4684999734536009 O
   0.8034999668443715    0.6659999936963601    0.9684999734536009 O
   0.1975000202427592    0.0850000083602638    0.2815000414948529 O
   0.1975000202427592    0.5850000083602638    0.7815000414948529 O
   0.6975000202427593    0.5850000083602638    0.2815000414948529 O
   0.6975000202427591    0.0850000083602638    0.7815000414948529 O
   0.9465000331030301    0.6649999916502559    0.6125000119035348 O
   0.9465000331030301    0.1649999916502559    0.1125000119035348 O
   0.4465000331030300    0.1649999916502559    0.6125000119035348 O
   0.4465000331030302    0.6649999916502559    0.1125000119035348 O
   0.5524999797256818    0.5840000062931202    0.6374999731480114 O
   0.5524999797256818    0.0840000062931202    0.1374999731480114 O
   0.0524999797256818    0.0840000062931202    0.6374999731480114 O
   0.0524999797256820    0.5840000062931203    0.1374999731480114 O
   0.5995000005015990    0.4135000109985204    0.3180000186602990 O
   0.5995000005015990    0.9135000109985203    0.8180000186602989 O
   0.0995000005015991    0.9135000109985203    0.3180000186602990 O
   0.0995000005015989    0.4135000109985202    0.8180000186602989 O
   0.1545000075811278    0.3364999890119993    0.1859999894750262 O
   0.1545000075811278    0.8364999890119993    0.6859999894750262 O
   0.6545000075811278    0.8364999890119993    0.1859999894750262 O
   0.6545000075811278    0.3364999890119992    0.6859999894750262 O
   0.5954999923873131    0.5314999818728591    0.9319999813993125 O
   0.5954999923873131    0.0314999818728590    0.4319999813993124 O
   0.0954999923873130    0.0314999818728590    0.9319999813993124 O
   0.0954999923873132    0.5314999818728591    0.4319999813993124 O
   0.6504999995159338    0.7185000181166213    0.5640000105354935 O
   0.6504999995159338    0.2185000181166213    0.0640000105354935 O
   0.1504999995159340    0.2185000181166213    0.5640000105354935 O
   0.1504999995159340    0.7185000181166213    0.0640000105354935 O
   0.7814999818413000    0.6819999813397010    0.5954999923382213 O
   0.7814999818413000    0.1819999813397010    0.0954999923382213 O
   0.2814999818413000    0.1819999813397010    0.5954999923382213 O
   0.2814999818413000    0.6819999813397010    0.0954999923382213 O
   0.4685000181061016    0.8140000105249738    0.6504999995369731 O
   0.4685000181061016    0.3140000105249738    0.1504999995369731 O
   0.9685000181061016    0.3140000105249738    0.6504999995369731 O
   0.9685000181061016    0.8140000105249738    0.1504999995369731 O
   0.1635000109880007    0.0680000186006875    0.0995000004735466 O
   0.1635000109880007    0.5680000186006875    0.5995000004735466 O
   0.6635000109880007    0.5680000186006875    0.0995000004735466 O
   0.6635000109880007    0.0680000186006876    0.5995000004735466 O
   0.5864999889804403    0.4359999894645065    0.6545000075811278 O
   0.5864999889804403    0.9359999894645065    0.1545000075811278 O
   0.0864999889804403    0.9359999894645065    0.6545000075811279 O
   0.0864999889804403    0.4359999894645065    0.1545000075811278 O
   0.6859999895030786    0.4045000076617787    0.5864999890014797 O
   0.6859999895030786    0.9045000076617787    0.0864999890014797 O
   0.1859999895030786    0.9045000076617787    0.5864999890014797 O
   0.1859999895030786    0.4045000076617787    0.0864999890014797 O
   0.3180000185691285    0.3495000004630269    0.6635000109880007 O
   0.3180000185691285    0.8495000004630269    0.1635000109880007 O
   0.8180000185691285    0.8495000004630269    0.6635000109880007 O
   0.8180000185691285    0.3495000004630269    0.1635000109880007 O
   0.5640000105144541    0.9004999995264534    0.4685000181271409 O
   0.5640000105144541    0.4004999995264534    0.9685000181271409 O
   0.0640000105144543    0.4004999995264534    0.4685000181271410 O
   0.0640000105144540    0.9004999995264533    0.9685000181271409 O
   0.4319999813993125    0.3454999924188722    0.2814999818833787 O
   0.4319999813993125    0.8454999924188722    0.7814999818833787 O
   0.9319999813993125    0.8454999924188722    0.2814999818833787 O
   0.9319999813993126    0.3454999924188722    0.7814999818833787 O
