Cubic 
1.0
        7.1480998993         0.0000000000         0.0000000000
        0.0000000000         7.1480998993         0.0000000000
        0.0000000000         0.0000000000         7.1480998993
   Mo    O   La
    4   28    4
Cartesian
     1.017389100         1.017389100         1.017389100
     2.556660956         6.130710906         4.591438943
     6.130710906         4.591438943         2.556660956
     4.591438943         2.556660956         6.130710906
     6.162662846         5.106959985         4.224026567
     4.559487003         2.041139914         0.649976617
     0.985437053         1.532910036         6.498123282
     2.588612897         5.615189864         2.924073333
     4.224026567         6.162662846         5.106959985
     0.649976617         4.559487003         2.041139914
     6.498123282         0.985437053         1.532910036
     2.924073333         2.588612897         5.615189864
     5.106959985         4.224026567         6.162662846
     2.041139914         0.649976617         4.559487003
     1.532910036         6.498123282         0.985437053
     5.615189864         2.924073333         2.588612897
     2.202186530         2.202186530         2.202186530
     1.371863420         4.945913583         5.776236266
     4.945913583         5.776236266         1.371863420
     5.776236266         1.371863420         4.945913583
     6.738299244         1.171573594         3.216501926
     3.983850605         5.976526199         6.790552089
     0.409800655         4.745623650         0.357548023
     3.164249294         2.402476249         3.931597760
     3.216501926         6.738299244         1.171573594
     6.790552089         3.983850605         5.976526199
     0.357548023         0.409800655         4.745623650
     3.931597760         3.164249294         2.402476249
     1.171573594         3.216501926         6.738299244
     5.976526199         6.790552089         3.983850605
     4.745623650         0.357548023         0.409800655
     2.402476249         3.931597760         3.164249294
     6.097186378         6.097186378         6.097186378
     4.624963471         1.050913521         2.523136429
     1.050913521         2.523136429         4.624963471
     2.523136429         4.624963471         1.050913521
