Cubic 
1.0
        7.1294999123         0.0000000000         0.0000000000
        0.0000000000         7.1294999123         0.0000000000
        0.0000000000         0.0000000000         7.1294999123
   La   Gd   Mo    W    O
    4    4    4    4   28
Cartesian
     6.025853341         6.025853341         6.025853341
     4.668396527         1.103646571         2.461103385
     1.103646571         2.461103385         4.668396527
     2.461103385         4.668396527         1.103646571
     6.025853341         6.025853341         6.025853341
     4.668396527         1.103646571         2.461103385
     1.103646571         2.461103385         4.668396527
     2.461103385         4.668396527         1.103646571
     1.000981840         1.000981840         1.000981840
     2.563768222         6.128518178         4.565731690
     6.128518178         4.565731690         2.563768222
     4.565731690         2.563768222         6.128518178
     1.000981840         1.000981840         1.000981840
     2.563768222         6.128518178         4.565731690
     6.128518178         4.565731690         2.563768222
     4.565731690         2.563768222         6.128518178
     1.985565659         1.985565659         1.985565659
     1.579184297         5.143934465         5.550315403
     5.143934465         5.550315403         1.579184297
     5.550315403         1.579184297         5.143934465
     0.755726610         1.204885483         3.571879364
     2.809023346         5.924614216         0.007129408
     6.373773302         4.769635652         7.122370504
     4.320476566         2.359864473         3.557620548
     3.571879364         0.755726610         1.204885483
     0.007129408         2.809023346         5.924614216
     7.122370504         6.373773302         4.769635652
     3.557620548         4.320476566         2.359864473
     1.204885483         3.571879364         0.755726610
     5.924614216         0.007129408         2.809023346
     4.769635652         7.122370504         6.373773302
     2.359864473         3.557620548         4.320476566
     6.188405716         4.955002388         3.593268014
     4.505844152         2.174497524         0.028518057
     0.941094196         1.390252432         7.100981855
     2.623655760         5.739247480         3.536231899
     3.593268014         6.188405716         4.955002388
     0.028518057         4.505844152         2.174497524
     7.100981855         0.941094196         1.390252432
     3.536231899         2.623655760         5.739247480
     4.955002388         3.593268014         6.188405716
     2.174497524         0.028518057         4.505844152
     1.390252432         7.100981855         0.941094196
     5.739247480         3.536231899         2.623655760
